NAME: tsp_159
COMMENT: Random TSP instance
TYPE: TSP
DIMENSION: 50
EDGE_WEIGHT_TYPE: EUC_2D
NODE_COORD_SECTION
1 454 122
2 738 636
3 789 829
4 244 420
5 446 347
6 879 223
7 987 492
8 88 665
9 115 79
10 327 653
11 890 945
12 326 131
13 827 97
14 110 335
15 517 793
16 757 910
17 40 870
18 384 136
19 718 339
20 551 290
21 315 328
22 561 518
23 674 17
24 816 187
25 378 601
26 519 212
27 411 467
28 8 511
29 144 135
30 255 214
31 199 88
32 946 231
33 499 655
34 882 554
35 658 719
36 402 253
37 503 316
38 662 355
39 984 233
40 823 734
41 743 934
42 471 554
43 503 567
44 33 701
45 155 820
46 1 753
47 84 705
48 61 40
49 617 739
50 394 368
